0 0 0 0
0 1 2 0
0 2 0 0
0 3 1 0
0 4 2 8
0 5 0 18
0 6 2 1
0 7 1 18
0 8 1 18
0 9 1 1
0 10 0 21
0 11 1 8
0 12 2 8
0 13 0 21
0 14 2 23
0 15 0 25
0 16 2 8
0 17 2 14
0 18 2 23
0 19 0 22
0 20 1 26
0 21 0 26
0 22 0 29
0 23 0 29
0 24 0 32
0 25 0 37
0 26 1 34
0 27 2 32
0 28 0 40
0 29 0 41
0 30 1 32
0 31 0 42
